61505
[0, 1, 27, 28, 29, 33, 32, 31, 30, 48, 49, 50, 51, 52, 53, 54, 55, 56, 57, 45, 46, 47, 58, 59, 78, 79, 80, 81, 82, 83, 84, 85, 104, 103, 105, 106, 107, 108, 109, 110, 111, 112, 113, 143, 142, 141, 140, 139, 138, 137, 136, 135, 134, 133, 132, 131, 130, 114, 129, 128, 127, 126, 125, 124, 123, 122, 121, 120, 119, 118, 117, 116, 115, 91, 90, 72, 73, 74, 75, 88, 89, 93, 92, 94, 95, 96, 97, 98, 99, 100, 101, 102, 87, 86, 77, 76, 60, 61, 62, 63, 64, 65, 66, 67, 68, 69, 71, 70, 44, 43, 42, 13, 12, 11, 10, 9, 8, 6, 7, 18, 19, 17, 16, 15, 14, 41, 40, 20, 39, 38, 37, 36, 22, 21, 23, 35, 34, 26, 25, 24, 5, 4, 3, 2]
